(declare-fun e () String)
(declare-fun c () String)
(declare-fun b () String)
(declare-fun d () String)
(declare-fun a () String)
(declare-fun h () String)
(assert (= "eg" (str.++ "hf" d)))
(assert (= (str.++ "g" a d "e" b "g") (str.++ "ef" b)))
(assert (= (str.++ "d" c) (str.++ "ef" e "b" h "f")))

(check-sat)
